0000000000000000
0001111100000000
0001111111000000
0001111111000000
0000001111100000
0000001111100000
0000000111100000
0000000111100000
0000000111100000
0000011111100000
0000111111100000
0001111111100000
0011111111110000
0011110111110000
0111110011110000
0000000000000000
